peakDumbCharging = 22200; 
Machine = anon_enum(16); 
machineSpeed = [3700,3700,3700,3700,3700,3700,3700,3700,3700,3700,3700,3700,3700,3700,3700,3700]; 
machineLoad = [3700,3700,3700,3700,3700,3700,3700,3700,3700,3700,3700,3700,3700,3700,3700,3700]; 
Car = anon_enum(27); 
demandCar = [2480,4560,11040,19760,800,18560,200,10160,7800,4920,6320,11200,14160,8040,3200,8240,1320,25240,40,22280,560,12400,5040,5040,5920,31360,28160]; 
arrivalCar = [73,72,71,71,71,71,71,68,67,63,62,60,59,57,51,50,48,46,46,43,43,43,41,40,40,30,29]; 
departureCar = [75,75,76,79,74,77,72,74,73,66,68,64,64,63,54,54,50,56,47,52,44,50,44,45,44,46,39]; 
